p cnf 7230 17
-2748 -3342 -3740 0
-2746 -3340 -3738 0
-2744 -3338 -3736 0
2748 -3741 0
2746 -3739 0
2744 -3737 0
3740 3741 0
3738 3739 0
3736 3737 0
3342 -3741 0
3340 -3739 0
3338 -3737 0
-2750 -3344 3743 0
3734 3735 0
-3734 -3735 0
3344 -3743 0
2750 -3743 0
